\* Problem: Unknown *\

Maximize
 obj: + xp_0_0 + xp_0_1 + xp_0_2 + xp_0_3 + xp_1_0 + xp_1_1 + xp_1_2
 + xp_2_0 + xp_2_1 + xp_2_2 + xp_2_3 + xp_3_0 + xp_3_1 + xp_3_2 + xp_4_0
 + xp_5_0 + xp_5_1 + xp_6_0 + xp_7_0 + xp_8_0 + xp_8_1 + xp_9_0
 + xp_10_0 + xp_10_1 + xp_11_0 + xp_11_1 + xp_11_2 + xp_11_3 + xp_12_0
 + xp_13_0 + xp_13_1 + xp_14_0 + xp_14_1 + xp_15_0 + xp_16_0 + xp_16_1
 + xp_17_0 + xp_17_1 + xp_17_2 + xp_17_3 + xp_18_0 + xp_18_1 + xp_18_2
 + xp_18_3 + xp_19_0 + xp_19_1 + xp_19_2 + xp_19_3 + xp_19_4 + xp_20_0
 + xp_20_1 + xp_20_2 + xp_21_0 + xp_21_1 + xp_21_2 + xp_21_3 + xp_21_4
 + xp_22_0 + xp_22_1 + xp_22_2 + xp_22_3 + xp_23_0 + xp_23_1 + xp_23_2
 + xp_23_3

Subject To
 r_1: 0 xp_0_0 <= 26.5090230242688
 r_2: + xp_23_3 + xp_18_3 + xp_5_1 + xp_2_3 <= 26.0949464012251
 r_3: + xp_21_4 + xp_18_2 <= 27.6367006487488
 r_4: + xp_17_1 + xp_15_0 <= 27.6367006487488
 r_5: + xp_18_0 <= 26.0949464012251
 r_6: + xp_18_1 <= 26.5090230242688
 r_7: + xp_20_2 <= 26.5090230242688
 r_8: + xp_23_2 + xp_22_2 + xp_11_2 + xp_3_2 + xp_2_2
 <= 26.0949464012251
 r_9: + xp_11_1 + xp_3_1 <= 27.6367006487488
 r_10: + xp_17_3 + xp_3_0 <= 27.6367006487488
 r_11: + xp_18_1 + xp_11_3 <= 26.0949464012251
 r_12: + xp_11_0 <= 26.5090230242688
 r_13: 0 xp_0_0 <= 28.7484662576687
 r_14: + xp_21_3 + xp_19_2 + xp_14_0 + xp_0_2 <= 26.0949464012251
 r_15: + xp_21_0 + xp_19_4 <= 27.6367006487488
 r_16: + xp_21_1 + xp_0_3 + xp_0_1 <= 27.6367006487488
 r_17: + xp_0_0 <= 26.0949464012251
 r_18: + xp_21_4 + xp_4_0 <= 26.5090230242688
 r_19: + xp_19_0 <= 26.5090230242688
 r_20: + xp_21_2 + xp_19_3 + xp_19_1 + xp_14_1 <= 28.7484662576687
 r_21: + xp_20_1 <= 26.0949464012251
 r_22: + xp_21_3 <= 27.6367006487488
 r_23: + xp_22_3 + xp_22_2 + xp_17_2 <= 27.6367006487488
 r_24: + xp_23_3 + xp_23_2 + xp_3_2 <= 27.1553784860558
 r_25: 0 xp_0_0 <= 28.7484662576687
 r_26: + xp_18_3 + xp_0_2 <= 26.0949464012251
 r_27: + xp_11_2 <= 26.0949464012251
 r_28: + xp_19_3 + xp_19_2 + xp_10_1 <= 26.0949464012251
 r_29: 0 xp_0_0 <= 27.6367006487488
 r_30: + xp_2_0 <= 27.6367006487488
 r_31: + xp_18_2 + xp_3_1 <= 27.1553784860558
 r_32: + xp_2_1 <= 28.7484662576687
 r_33: + xp_11_1 + xp_2_3 <= 27.6367006487488
 r_34: + xp_19_4 + xp_2_2 <= 27.6367006487488
 r_35: 0 xp_0_0 <= 27.6367006487488
 r_36: + xp_9_0 <= 27.6367006487488
 r_37: + xp_21_1 + xp_13_1 + xp_8_1 <= 27.1553784860558
 r_38: + xp_1_1 <= 28.7484662576687
 r_39: + xp_17_2 + xp_0_3 <= 27.6367006487488
 r_40: + xp_0_1 <= 26.0949464012251
 r_41: + xp_12_0 <= 27.1553784860558
 r_42: + xp_21_1 <= 27.1553784860558
 r_43: + xp_16_0 <= 27.1553784860558
 r_44: + xp_23_3 + xp_23_2 + xp_23_1 + xp_16_1 + xp_1_2
 <= 28.7484662576687
 r_45: + xp_3_2 + xp_3_1 <= 27.6367006487488
 r_46: + xp_18_2 <= 26.0949464012251
 r_47: + xp_22_1 + xp_16_1 + xp_13_1 <= 28.7484662576687
 r_48: + xp_13_0 <= 28.7484662576687
 r_49: 0 xp_0_0 <= 27.6367006487488
 r_50: 0 xp_0_0 <= 26.0949464012251
 r_51: + xp_8_1 + xp_1_1 <= 27.6367006487488
 r_52: + xp_8_0 + xp_1_2 <= 27.6367006487488
 r_53: + xp_1_0 <= 27.6367006487488
 r_54: + xp_0_3 <= 26.0949464012251
 r_55: 0 xp_0_0 <= 27.6367006487488
 r_56: 0 xp_0_0 <= 27.6367006487488
 r_57: 0 xp_0_0 <= 26.0949464012251
 r_58: + xp_22_3 + xp_17_2 + xp_5_0 <= 26.0949464012251
 r_59: + xp_22_0 <= 26.0949464012251
 r_60: + xp_23_1 + xp_6_0 <= 26.0949464012251
 r_61: + xp_23_0 + xp_22_1 <= 26.0949464012251
 r_62: + xp_17_0 <= 26.0949464012251
 r_63: + xp_23_3 + xp_17_1 + xp_11_3 + xp_5_1 <= 26.0949464012251
 r_64: + xp_23_2 + xp_22_2 + xp_17_3 <= 26.0949464012251
 r_65: + xp_20_1 + xp_19_3 + xp_14_1 + xp_10_1 + xp_2_1
 <= 28.7484662576687
 r_66: + xp_21_2 + xp_7_0 <= 28.7484662576687
 r_67: + xp_20_2 + xp_19_1 + xp_10_0 <= 28.7484662576687
 r_68: + xp_20_0 <= 28.7484662576687

Bounds
 0 <= xp_0_0 <= 27.2698168395482
 0 <= xp_0_1 <= 16.3618901037289
 0 <= xp_0_2 <= 5.45396336790964
 0 <= xp_0_3 <= 5.45396336790964
 0 <= xp_1_0 <= 18.5581875170777
 0 <= xp_1_1 <= 11.6400258736022
 0 <= xp_1_2 <= 0.732099137782931
 0 <= xp_2_0 <= 18.2992360633511
 0 <= xp_2_1 <= 5.45396336790964
 0 <= xp_2_2 <= 6.09974535445035
 0 <= xp_2_3 <= 0.645781986540709
 0 <= xp_3_0 <= 16.3618901037289
 0 <= xp_3_1 <= 5.45396336790964
 0 <= xp_3_2 <= 5.45396336790964
 0 <= xp_4_0 <= 23.0179069979259
 0 <= xp_5_0 <= 18.4143255983407
 0 <= xp_5_1 <= 4.60358139958517
 0 <= xp_6_0 <= 20.7161162981333
 0 <= xp_7_0 <= 19.8529447857111
 0 <= xp_8_0 <= 14.271102338714
 0 <= xp_8_1 <= 3.56777558467851
 0 <= xp_9_0 <= 16.5441206547592
 0 <= xp_10_0 <= 13.2352965238074
 0 <= xp_10_1 <= 3.30882413095184
 0 <= xp_11_0 <= 20.9462953681125
 0 <= xp_11_1 <= 15.4923320002029
 0 <= xp_11_2 <= 5.01918431614662
 0 <= xp_11_3 <= 10.9079267358193
 0 <= xp_12_0 <= 15.5370872236
 0 <= xp_13_0 <= 12.0844011739111
 0 <= xp_13_1 <= 3.02110029347777
 0 <= xp_14_0 <= 11.5089534989629
 0 <= xp_14_1 <= 2.87723837474073
 0 <= xp_15_0 <= 14.2423299549666
 0 <= xp_16_0 <= 10.9335058240148
 0 <= xp_16_1 <= 2.7333764560037
 0 <= xp_17_0 <= 26.9053720993778
 0 <= xp_17_1 <= 2.54475931386959
 0 <= xp_17_2 <= 2.54475931386959
 0 <= xp_17_3 <= 7.99872268177924
 0 <= xp_18_0 <= 19.7058895714221
 0 <= xp_18_1 <= 5.45396336790964
 0 <= xp_18_2 <= 7.65345407681035
 0 <= xp_18_3 <= 5.45396336790964
 0 <= xp_19_0 <= 26.0422005869555
 0 <= xp_19_1 <= 2.11317355765848
 0 <= xp_19_2 <= 2.11317355765848
 0 <= xp_19_3 <= 5.45396336790964
 0 <= xp_19_4 <= 2.11317355765848
 0 <= xp_20_0 <= 25.7544767494815
 0 <= xp_20_1 <= 5.90793491676434
 0 <= xp_20_2 <= 5.45396336790964
 0 <= xp_21_0 <= 23.4686688893385
 0 <= xp_21_1 <= 1.65281541769996
 0 <= xp_21_2 <= 1.65281541769996
 0 <= xp_21_3 <= 7.10677878560961
 0 <= xp_21_4 <= 1.65281541769996
 0 <= xp_22_0 <= 28.6349084197741
 0 <= xp_22_1 <= 1.36509158022589
 0 <= xp_22_2 <= 2.73018316045178
 0 <= xp_22_3 <= 1.36509158022589
 0 <= xp_23_0 <= 28.6349084197741
 0 <= xp_23_1 <= 2.73018316045178
 0 <= xp_23_2 <= 1.36509158022589
 0 <= xp_23_3 <= 1.36509158022589

End
